&control
 calculation  = 'bands'
 restart_mode = 'from_scratch',
 pseudo_dir   = './pseudo/',
 outdir       = './'
 prefix       = 'Ga2O3'
/
&system
 ibrav     = 0, 
 nat       = 10, 
 ntyp      = 2,
 ecutwfc   =  60.0,
 ecutrho   = 480.0,
 occupations = 'tetrahedra',

 nbnd    =  65
/
&electrons
 diagonalization='david'
 conv_thr = 1.0e-9
 mixing_beta = 0.2
/
&ions
/
&cell
/
ATOMIC_SPECIES
Ga 69.723 Ga.pbesol-dn-kjpaw_psl.0.2.UPF
O  15.999 O.pbesol-n-kjpaw_psl.0.1.UPF


CELL_PARAMETERS (angstrom)
   6.118542334   1.530907594   0.000377868
  -6.118542334   1.530907594  -0.000377868
  -1.388260494   0.000000000   5.644500262

ATOMIC_POSITIONS (crystal)
Ga       0.090417297  -0.090417297   0.794989099
Ga       0.909582703   0.090417297   0.205010901
Ga       0.658542076   0.341457924   0.313736601
Ga       0.341457924  -0.341457924   0.686263399
O        0.164733011  -0.164733011   0.109454552
O        0.835266989   0.164733011   0.890545448
O        0.173372013  -0.173372013   0.563239407
O        0.826627987   0.173372013   0.436760593
O        0.495950279  -0.495950279   0.256392528
O        0.504049721   0.495950279   0.743607472

K_POINTS crystal_b
5
  0.500000000000    0.000000000000    0.500000000000  30 ! F   
  0.000000000000    0.000000000000    0.000000000000  30 ! GM  
  0.500000000000    0.500000000000    0.500000000000  30 ! T   
  0.000000000000    0.000000000000    0.000000000000  30 ! GM  
  0.500000000000    0.000000000000    0.000000000000  30 ! L   
