Ga2 O3
1.0
	6.1149997711 	1.5199999809 	0.0000000000
	-6.1149997711 	1.5199999809 	0.0000000000
	-1.3736609922 	0.0000000000 	5.6349851545
A B C D
1 1 1 1
Direct
 0.0000	 0.0000	 0.0000
 0.8192	-0.8192	-0.5896
 0.2510	-0.2510	-0.1091
 0.5682	-0.5682	-0.4805

